p td 22 159
2 1
3 1
3 2
4 1
4 3
4 2
5 3
5 1
5 4
5 2
6 2
6 1
6 5
6 3
6 4
7 2
7 4
7 6
7 1
8 4
8 7
8 3
8 6
8 2
8 5
9 4
9 5
9 6
9 2
9 3
9 8
9 7
10 9
10 1
10 6
11 8
11 1
11 9
11 5
11 10
11 4
12 1
12 8
12 6
12 3
12 7
12 11
12 2
12 10
13 10
13 9
13 2
13 6
13 7
13 8
13 3
13 4
13 11
13 1
14 6
14 4
14 11
14 2
14 10
14 9
14 1
14 8
14 3
14 7
14 13
14 12
15 10
15 6
15 2
15 1
15 14
15 13
15 8
16 8
16 11
16 7
16 12
16 13
16 4
16 9
16 10
16 2
16 15
17 13
17 4
17 1
17 10
17 7
17 5
17 8
17 15
17 2
18 11
18 10
18 16
18 13
18 6
18 12
18 1
18 7
18 9
18 15
19 18
19 5
19 7
19 1
19 16
19 3
19 17
19 13
19 10
19 12
20 5
20 15
20 2
20 16
20 18
20 10
20 4
20 12
20 11
20 14
20 1
20 13
21 17
21 19
21 20
21 15
21 1
21 14
21 18
21 12
21 6
21 3
21 8
21 9
21 13
21 11
22 20
22 9
22 16
22 13
22 2
22 15
22 14
22 1
22 5
22 21
22 12
22 11
22 6
22 19
22 10
22 17
